Reading instance from file data/g09.dat
Number of nodes: 1001
Number of edges: 20000
initialize CPLEX ... done.
Calling CPLEX solve ...
Version identifier: 12.10.0.0 | 2019-11-26 | 843d4de
CPXPARAM_Threads                                 1
CPXPARAM_TimeLimit                               3600
CPXPARAM_WorkMem                                 8192
Tried aggregator 2 times.
MIP Presolve eliminated 1501 rows and 2000 columns.
MIP Presolve modified 41500 coefficients.
Aggregator did 500 substitutions.
Reduced MIP has 41003 rows, 78500 columns, and 272500 nonzeros.
Reduced MIP has 39500 binaries, 39000 generals, 0 SOSs, and 0 indicators.
Presolve time = 0.39 sec. (288.61 ticks)
Probing fixed 0 vars, tightened 933 bounds.
Probing time = 0.71 sec. (374.13 ticks)
Tried aggregator 1 time.
Detecting symmetries...
Reduced MIP has 41003 rows, 78500 columns, and 272500 nonzeros.
Reduced MIP has 39500 binaries, 39000 generals, 0 SOSs, and 0 indicators.
Presolve time = 0.24 sec. (156.32 ticks)
Probing time = 0.06 sec. (16.85 ticks)
Clique table members: 39001.
MIP emphasis: balance optimality and feasibility.
MIP search method: dynamic search.
Parallel mode: none, using 1 thread.
Root relaxation solution time = 26.45 sec. (38159.49 ticks)

        Nodes                                         Cuts/
   Node  Left     Objective  IInf  Best Integer    Best Bound    ItCnt     Gap

      0     0     3969.6649   683                   3969.6649    61192         
      0     0     3970.4818   683               Flowcuts: 314    62937         
      0     0     3970.5037   683                Flowcuts: 16    62976         
      0     0     3970.5037   683                 Flowcuts: 1    62977         
Heuristic still looking.
Detecting symmetries...
      0     2     3970.5037  1088                   3970.5038    62977         
Elapsed time = 60.76 sec. (69014.77 ticks, tree = 0.01 MB, solutions = 0)
      5     7     3986.1141  1069                   3970.5048    67794         
      6     8     3970.5067  1076                   3970.5067    68598         
      8    10     3983.0987  1051                   3970.5067    70458         
     11    11     3972.4507  1068                   3970.5067    72690         
     15    13     4017.4288  1042                   3970.5067    98958         
     16    14     4021.4827  1059                   3970.5067   106889         
     17    15     4041.5332   907                   3970.5067   132464         
     18    16     4043.6653   904                   3970.5067   133797         
     19    17     4059.3502   892                   3970.5067   148951         
     20    18     4047.3733   934                   3970.5067   152389         
Elapsed time = 94.75 sec. (108595.55 ticks, tree = 2.30 MB, solutions = 0)
     21    19     4054.8884   888                   3970.5067   166438         
     23    21     4072.8883   835                   3970.5067   176465         
     24    22     4081.2579   877                   3970.5067   182309         
     25    23     4074.2192   826                   3970.5067   190411         
     26    24     4077.4540   829                   3970.5067   192724         
     27    25     4089.1110   842                   3970.5067   211396         
     28    26     4080.1567   858                   3970.5067   238790         
     29    27     4085.7661   844                   3970.5067   243192         
     30    28     4087.4174   854                   3970.5067   256385         
     31    29     4095.1276   848                   3970.5067   259381         
Elapsed time = 124.03 sec. (141941.03 ticks, tree = 4.57 MB, solutions = 0)
     34    32     4100.2933   821                   3970.5067   268610         
     36    34     4109.1765   830                   3970.5067   275919         
     38    36     4113.4241   851                   3970.5067   287730         
     39    37     4116.9282   875                   3970.5067   290349         
     40    38     4131.7193   852                   3970.5067   303361         
     41    39     4138.5027   893                   3970.5067   320326         
     42    40     4135.1380   816                   3970.5067   322468         
     58    56     4136.4091   804                   3970.5067   323677         
     60    58     4159.6370   797                   3970.5067   329019         
     62    60     4137.2431   833                   3970.5067   331624         
Elapsed time = 155.21 sec. (180202.08 ticks, tree = 13.18 MB, solutions = 0)
     66    64     4140.4624   815                   3970.5067   334147         
     70    68     4140.9491   816                   3970.5067   334394         
     75    73     4167.2646   821                   3970.5067   339094         
     81    79     4143.4093   826                   3970.5067   340610         
     87    85     4144.0499   832                   3970.5067   341922         
     92    90     4143.5362   823                   3970.5067   343219         
     98    96     4144.7108   809                   3970.5067   344981         
    100    98     4144.7655   797                   3970.5067   345147         
    102   100     4146.5122   813                   3970.5067   346117         
    105   103     4145.9807   813                   3970.5067   347182         
Elapsed time = 170.67 sec. (199051.99 ticks, tree = 28.44 MB, solutions = 0)
    106   104     4271.3035   795                   3970.5067   351314         
    107   105     4145.7629   815                   3970.5067   352223         
    110   108     4173.3712   817                   3970.5067   357215         
    115   113     4152.2469   822                   3970.5067   359589         
    118   116     4153.5523   832                   3970.5067   361931         
    120   118     4153.7395   816                   3970.5067   363651         
    122   120     4153.9781   817                   3970.5067   365430         
    124   122     4158.3948   827                   3970.5067   368502         
    126   124     4188.7609   861                   3970.5067   378269         
    128   126     4192.2572   817                   3970.5067   383583         
Elapsed time = 198.04 sec. (232654.74 ticks, tree = 36.73 MB, solutions = 0)
    130   128     4161.6057   816                   3970.5067   386602         
    132   130     4198.1907   816                   3970.5067   393764         
    134   132     4189.9005   847                   3970.5067   399375         
    137   135     4196.3685   853                   3970.5067   407511         
    140   138     4169.0772   869                   3970.5067   409753         
    143   141     4206.1095   854                   3970.5067   417809         
    145   143     4203.6683   835                   3970.5067   422450         
    147   145     4188.9531   882                   3970.5067   425942         
    150   148     4203.0155   870                   3970.5067   431696         
    152   150     4212.7232   878                   3970.5067   441166         
Elapsed time = 231.09 sec. (273998.99 ticks, tree = 45.40 MB, solutions = 0)
    153   151     4174.7973   891                   3970.5067   456751         
    154   152     4236.6312   853                   3970.5067   507896         
    157   155     4206.3919   879                   3970.5067   513317         
    158   156     4176.0674   882                   3970.5067   514121         
    159   157     4198.3669   890                   3970.5067   520887         
    160   158     4416.9302   881                   3970.5067   527316         
    161   159     4214.4620   908                   3970.5067   535741         
    162   160     4222.0843   894                   3970.5067   538863         
    165   163     4266.2789   895                   3970.5067   548658         
    167   165     4261.1790   874                   3970.5067   557371         
Elapsed time = 276.02 sec. (328455.40 ticks, tree = 49.27 MB, solutions = 0)
    168   166     4265.5878   883                   3970.5067   559297         
    170   168     4267.0757   888                   3970.5067   561992         
    171   169     4286.0197   879                   3970.5067   572102         
    173   171     4272.9404   869                   3970.5067   575012         
    179   177     4273.2018   877                   3970.5067   575635         
    185   183     4273.2300   877                   3970.5067   576261         
    190   188     4273.0091   868                   3970.5067   577078         
    191   189     4274.5361   912                   3970.5067   578587         
    197   195     4275.1549   917                   3970.5067   581104         
    203   201     4278.4917   886                   3970.5067   582133         
Elapsed time = 290.91 sec. (346887.62 ticks, tree = 60.72 MB, solutions = 0)
    207   205     4273.5984   886                   3970.5067   583172         
    209   207     4274.7396   921                   3970.5067   584947         
    213   211     4274.1419   879                   3970.5067   586306         
    217   215     4274.2039   881                   3970.5067   587408         
    219   217     4276.4791   913                   3970.5067   589580         
    220   218     4273.6937   873                   3970.5067   589581         
    223   221     4274.2280   881                   3970.5067   590765         
    225   223     4298.5949   922                   3970.5067   592744         
    229   227     4274.2320   881                   3970.5067   593860         
    233   231     4274.4498   879                   3970.5067   595198         
Elapsed time = 306.22 sec. (365955.02 ticks, tree = 71.63 MB, solutions = 0)
    237   235     4274.5054   881                   3970.5067   596606         
    240   238     4273.7518   872                   3970.5067   597362         
    241   239     4274.7537   880                   3970.5067   598513         
    243   241     4275.1638   881                   3970.5067   600086         
    245   243     4278.4785   904                   3970.5067   602857         
    247   245     4298.4251   870                   3970.5067   603940         
    249   247     4275.1981   881                   3970.5067   605014         
    251   249     4275.2895   881                   3970.5067   606076         
    253   251     4278.6405   913                   3970.5067   608719         
    264   262     4275.7573   887                   3970.5067   613188         
Elapsed time = 320.55 sec. (384520.58 ticks, tree = 83.27 MB, solutions = 0)
    267   265     4516.3501   869                   3970.5067   621447         
    270   268     4293.4013   859                   3970.5067   625816         
    275   273     4295.2028   928                   3970.5067   632417         
    277   275     4297.3386   920                   3970.5067   637493         
    281   279     4302.2227   904                   3970.5067   641635         
    286   284     4364.2886   909                   3970.5067   649437         
    292   290     4298.4682   907                   3970.5067   655630         
    299   297     4302.3548   905                   3970.5067   663255         
    306   304     4361.3470   910                   3970.5067   669743         
    311   309     4297.7478   911                   3970.5067   676529         
Elapsed time = 370.62 sec. (446651.98 ticks, tree = 100.41 MB, solutions = 0)
    317   315     4302.6519   909                   3970.5067   684907         
    322   320     4297.0403   911                   3970.5067   692290         
    325   323     4657.9588   870                   3970.5067   700919         
    328   326     4361.9304   860                   3970.5067   713384         
    330   328     4380.4522   858                   3970.5067   724341         
    333   331     4395.4644   852                   3970.5067   728450         
    352   350     4401.3186   904                   3970.5067   734954         
    358   356     4419.9119   907                   3970.5067   740023         
    388   386     4499.7051   817                   3970.5067   745269         
    398   396     4502.2858   834                   3970.5067   751161         
Elapsed time = 422.13 sec. (509845.48 ticks, tree = 132.66 MB, solutions = 0)
    403   401     4503.3383   841                   3970.5067   754988         
    409   407     4503.3428   846                   3970.5067   760657         
    416   414     4504.1934   853                   3970.5067   766570         
    420   418     4504.7531   874                   3970.5067   770627         
    426   424     4505.4741   884                   3970.5067   776395         
    436   434     4538.5085   866                   3970.5067   781684         
    450   448     4579.4527   885                   3970.5067   786617         
    451   449     5874.1878   807                   3970.5067   794284         
    455   453     4587.5057   900                   3970.5067   801662         
    457   455     4643.1767   851                   3970.5067   809576         
Elapsed time = 464.19 sec. (558743.18 ticks, tree = 155.28 MB, solutions = 0)
    461   459     4646.9049   915                   3970.5067   814974         
    466   464     4662.4734   914                   3970.5067   820999         

Performing restart 1

Repeating presolve.
Tried aggregator 1 time.
MIP Presolve eliminated 1 rows and 0 columns.
MIP Presolve modified 40500 coefficients.
Reduced MIP has 41002 rows, 78500 columns, and 234500 nonzeros.
Reduced MIP has 39500 binaries, 39000 generals, 0 SOSs, and 0 indicators.
Presolve time = 1.30 sec. (687.50 ticks)
Tried aggregator 1 time.
Reduced MIP has 41002 rows, 78500 columns, and 234500 nonzeros.
Reduced MIP has 39500 binaries, 39000 generals, 0 SOSs, and 0 indicators.
Presolve time = 0.23 sec. (146.21 ticks)
Represolve time = 2.65 sec. (1191.13 ticks)
    467     0     6162.2455  1077                   Cuts: 272   910945         
    467     0     6940.5039  1077                   Cuts: 627   925593         
    467     0     7276.5316  1077                   Cuts: 568   941708         
    467     0     7434.6116  1077                   Cuts: 460   953383         
    467     0     7491.5332  1077                   Cuts: 322   965639         
    467     0     7528.5308  1077                   Cuts: 346   974134         
    467     0     7546.2475  1077                   Cuts: 260   981813         
    467     0     7562.0522  1077                   Cuts: 345   990729         
    467     0     7571.5914  1077                   Cuts: 391   997177         
    467     0     7579.3888  1077                   Cuts: 213  1002022         
    467     0     7582.3602  1077                   Cuts: 270  1005935         
    467     0     7585.7761  1077                   Cuts: 331  1008393         
    467     0     7590.0305  1077                   Cuts: 165  1011689         
    467     0     7591.7420  1077                   Cuts: 141  1012831         
    467     0     7591.8938  1077                   Cuts: 123  1013143         
    467     0     7592.1435  1077                    Cuts: 35  1014378         
    467     0     7592.5721  1077                   Cuts: 127  1015636         
    467     0     7592.5721  1077                    Cuts: 69  1016042         
    467     0     7592.5813  1077                     Cuts: 8  1016126         
    467     0     7592.6219  1077                  MIRcuts: 2  1016288         
    467     2     7592.6219   791                   7592.6256  1016288         
    472     7     7595.8409   806                   7592.7011  1017818         
    477    12     7596.9373   777                   7592.7011  1019074         
    481    16     7596.9854   735                   7592.7011  1021328         
    483    18     7598.2909   362                   7592.7011  1042716         
    487    22     7601.8639   352                   7592.7011  1049450         
    490    25     7606.8622   653                   7592.7011  1087301         
    494    29     7602.1597   389                   7592.7011  1105515         
Elapsed time = 792.26 sec. (946375.48 ticks, tree = 1.71 MB, solutions = 0)
    497    32     7598.7261   145                   7592.7011  1106454         
    504    39     7609.0738   233                   7592.7011  1121219         
    506    41     7603.8847    86                   7592.7011  1139135         
    512    47     7600.6864   144                   7592.7011  1174043         
    515    50     7602.2990    78                   7592.7011  1272126         
    517    52     7604.6239    86                   7592.7011  1295145         
    526    61     7604.7480    72                   7592.7011  1296225         
    547    80     7648.2107    94                   7592.7011  1301856         
    552    85     7638.6700    87                   7592.7011  1315239         
    553    86     7642.0000    22                   7592.7011  1328347         
Elapsed time = 873.11 sec. (1032975.39 ticks, tree = 19.57 MB, solutions = 0)
*   560    77      integral     0     7642.0000     7592.7011  1329092    0.65%
*   567+   42                         7605.0000     7592.7489             0.16%
*   567+   25                         7600.0000     7592.7489             0.10%
*   567+    6                         7595.0000     7592.7489             0.03%
    567     8     7593.4746   770     7595.0000     7592.7489  1330848    0.03%
    592    15     7593.3445   775     7595.0000     7592.7648  1334201    0.03%
    600    21     7593.6266   673     7595.0000     7592.7648  1340002    0.03%
    641    48     7593.4805   488     7595.0000     7592.7724  1343343    0.03%
    666    56     7594.0000   799     7595.0000     7592.8242  1347078    0.03%
    672    50        cutoff           7595.0000     7593.0614  1351013    0.03%
    691    33        cutoff           7595.0000     7593.5102  1354231    0.02%

GUB cover cuts applied:  598
Clique cuts applied:  30
Cover cuts applied:  204
Flow cuts applied:  694
Mixed integer rounding cuts applied:  477
Zero-half cuts applied:  148
Lift and project cuts applied:  8
Gomory fractional cuts applied:  26

Root node processing (before b&c):
  Real time             =   59.20 sec. (68614.27 ticks)
Sequential b&c:
  Real time             =  840.91 sec. (997989.85 ticks)
                          ------------
Total (root+branch&cut) =  900.11 sec. (1066604.12 ticks)
SOLUTION:

x(0,691)[0..1]  = 1
x(650,888)[0..1]  = 1
x(128,358)[0..1]  = 1
x(324,360)[0..1]  = 1
x(557,736)[0..1]  = 1
x(194,224)[0..1]  = 1
x(143,557)[0..1]  = 1
x(282,297)[0..1]  = 1
x(834,868)[0..1]  = 1
x(56,774)[0..1]  = 1
x(92,862)[0..1]  = 1
x(158,233)[0..1]  = 1
x(239,764)[0..1]  = 1
x(23,323)[0..1]  = 1
x(168,995)[0..1]  = 1
x(399,449)[0..1]  = 1
x(23,615)[0..1]  = 1
x(118,397)[0..1]  = 1
x(110,998)[0..1]  = 1
x(437,810)[0..1]  = 1
x(124,265)[0..1]  = 1
x(944,987)[0..1]  = 1
x(441,915)[0..1]  = 1
x(235,494)[0..1]  = 1
x(461,854)[0..1]  = 1
x(464,587)[0..1]  = 1
x(123,811)[0..1]  = 1
x(77,771)[0..1]  = 1
x(203,284)[0..1]  = 1
x(297,751)[0..1]  = 1
x(24,27)[0..1]  = 1
x(407,558)[0..1]  = 1
x(616,703)[0..1]  = 1
x(240,815)[0..1]  = 1
x(40,71)[0..1]  = 1
x(52,505)[0..1]  = 1
x(654,947)[0..1]  = 1
x(230,665)[0..1]  = 1
x(666,759)[0..1]  = 1
x(557,651)[0..1]  = 1
x(123,524)[0..1]  = 1
x(231,482)[0..1]  = 1
x(437,713)[0..1]  = 1
x(397,787)[0..1]  = 1
x(451,849)[0..1]  = 1
x(207,238)[0..1]  = 1
x(152,853)[0..1]  = 1
x(77,119)[0..1]  = 1
x(3,474)[0..1]  = 1
x(94,603)[0..1]  = 1
x(279,717)[0..1]  = 1
x(324,513)[0..1]  = 1
x(184,990)[0..1]  = 1
x(558,941)[0..1]  = 1
x(382,929)[0..1]  = 1
x(390,970)[0..1]  = 1
x(673,708)[0..1]  = 1
x(550,992)[0..1]  = 1
x(166,738)[0..1]  = 1
x(106,597)[0..1]  = 1
x(66,585)[0..1]  = 1
x(137,984)[0..1]  = 1
x(348,447)[0..1]  = 1
x(48,182)[0..1]  = 1
x(416,792)[0..1]  = 1
x(69,193)[0..1]  = 1
x(499,843)[0..1]  = 1
x(454,991)[0..1]  = 1
x(384,720)[0..1]  = 1
x(273,925)[0..1]  = 1
x(41,823)[0..1]  = 1
x(113,240)[0..1]  = 1
x(607,714)[0..1]  = 1
x(538,750)[0..1]  = 1
x(478,488)[0..1]  = 1
x(72,118)[0..1]  = 1
x(615,855)[0..1]  = 1
x(219,994)[0..1]  = 1
x(331,956)[0..1]  = 1
x(97,917)[0..1]  = 1
x(24,859)[0..1]  = 1
x(714,938)[0..1]  = 1
x(524,982)[0..1]  = 1
x(220,324)[0..1]  = 1
x(92,311)[0..1]  = 1
x(247,549)[0..1]  = 1
x(46,852)[0..1]  = 1
x(221,430)[0..1]  = 1
x(123,741)[0..1]  = 1
x(275,335)[0..1]  = 1
x(187,860)[0..1]  = 1
x(496,757)[0..1]  = 1
x(603,701)[0..1]  = 1
x(329,743)[0..1]  = 1
x(194,910)[0..1]  = 1
x(226,975)[0..1]  = 1
x(193,617)[0..1]  = 1
x(9,737)[0..1]  = 1
x(187,423)[0..1]  = 1
x(75,922)[0..1]  = 1
x(175,607)[0..1]  = 1
x(459,675)[0..1]  = 1
x(93,443)[0..1]  = 1
x(30,348)[0..1]  = 1
x(387,413)[0..1]  = 1
x(68,674)[0..1]  = 1
x(513,864)[0..1]  = 1
x(748,985)[0..1]  = 1
x(894,898)[0..1]  = 1
x(499,960)[0..1]  = 1
x(645,739)[0..1]  = 1
x(257,569)[0..1]  = 1
x(224,542)[0..1]  = 1
x(459,579)[0..1]  = 1
x(646,945)[0..1]  = 1
x(660,791)[0..1]  = 1
x(384,686)[0..1]  = 1
x(511,946)[0..1]  = 1
x(449,667)[0..1]  = 1
x(611,697)[0..1]  = 1
x(240,763)[0..1]  = 1
x(200,208)[0..1]  = 1
x(5,439)[0..1]  = 1
x(602,616)[0..1]  = 1
x(156,592)[0..1]  = 1
x(237,349)[0..1]  = 1
x(938,954)[0..1]  = 1
x(94,866)[0..1]  = 1
x(578,850)[0..1]  = 1
x(290,565)[0..1]  = 1
x(447,653)[0..1]  = 1
x(68,290)[0..1]  = 1
x(667,873)[0..1]  = 1
x(653,935)[0..1]  = 1
x(380,641)[0..1]  = 1
x(164,837)[0..1]  = 1
x(366,563)[0..1]  = 1
x(412,473)[0..1]  = 1
x(416,612)[0..1]  = 1
x(449,800)[0..1]  = 1
x(541,782)[0..1]  = 1
x(580,659)[0..1]  = 1
x(40,969)[0..1]  = 1
x(310,406)[0..1]  = 1
x(175,673)[0..1]  = 1
x(411,417)[0..1]  = 1
x(72,220)[0..1]  = 1
x(190,378)[0..1]  = 1
x(347,366)[0..1]  = 1
x(309,611)[0..1]  = 1
x(661,828)[0..1]  = 1
x(195,997)[0..1]  = 1
x(175,939)[0..1]  = 1
x(266,390)[0..1]  = 1
x(645,733)[0..1]  = 1
x(125,712)[0..1]  = 1
x(207,972)[0..1]  = 1
x(898,944)[0..1]  = 1
x(390,498)[0..1]  = 1
x(141,500)[0..1]  = 1
x(392,420)[0..1]  = 1
x(714,913)[0..1]  = 1
x(677,798)[0..1]  = 1
x(54,154)[0..1]  = 1
x(82,354)[0..1]  = 1
x(404,486)[0..1]  = 1
x(523,594)[0..1]  = 1
x(365,951)[0..1]  = 1
x(105,538)[0..1]  = 1
x(638,755)[0..1]  = 1
x(203,702)[0..1]  = 1
x(55,405)[0..1]  = 1
x(203,842)[0..1]  = 1
x(843,921)[0..1]  = 1
x(6,296)[0..1]  = 1
x(356,487)[0..1]  = 1
x(316,903)[0..1]  = 1
x(181,361)[0..1]  = 1
x(503,904)[0..1]  = 1
x(238,638)[0..1]  = 1
x(308,841)[0..1]  = 1
x(441,776)[0..1]  = 1
x(310,577)[0..1]  = 1
x(430,762)[0..1]  = 1
x(579,872)[0..1]  = 1
x(743,886)[0..1]  = 1
x(355,696)[0..1]  = 1
x(372,677)[0..1]  = 1
x(641,681)[0..1]  = 1
x(103,650)[0..1]  = 1
x(698,793)[0..1]  = 1
x(713,845)[0..1]  = 1
x(208,464)[0..1]  = 1
x(302,746)[0..1]  = 1
x(215,518)[0..1]  = 1
x(427,661)[0..1]  = 1
x(277,299)[0..1]  = 1
x(76,260)[0..1]  = 1
x(300,398)[0..1]  = 1
x(67,678)[0..1]  = 1
x(363,371)[0..1]  = 1
x(296,580)[0..1]  = 1
x(122,926)[0..1]  = 1
x(13,660)[0..1]  = 1
x(92,672)[0..1]  = 1
x(46,894)[0..1]  = 1
x(411,950)[0..1]  = 1
x(335,345)[0..1]  = 1
x(323,564)[0..1]  = 1
x(75,861)[0..1]  = 1
x(231,914)[0..1]  = 1
x(609,833)[0..1]  = 1
x(72,790)[0..1]  = 1
x(96,646)[0..1]  = 1
x(354,392)[0..1]  = 1
x(497,965)[0..1]  = 1
x(252,808)[0..1]  = 1
x(404,879)[0..1]  = 1
x(467,620)[0..1]  = 1
x(248,543)[0..1]  = 1
x(361,391)[0..1]  = 1
x(882,962)[0..1]  = 1
x(633,773)[0..1]  = 1
x(216,295)[0..1]  = 1
x(175,480)[0..1]  = 1
x(247,455)[0..1]  = 1
x(6,948)[0..1]  = 1
x(122,459)[0..1]  = 1
x(100,328)[0..1]  = 1
x(612,698)[0..1]  = 1
x(746,976)[0..1]  = 1
x(594,748)[0..1]  = 1
x(8,471)[0..1]  = 1
x(303,953)[0..1]  = 1
x(823,857)[0..1]  = 1
x(100,110)[0..1]  = 1
x(171,525)[0..1]  = 1
x(175,251)[0..1]  = 1
x(387,986)[0..1]  = 1
x(558,909)[0..1]  = 1
x(473,654)[0..1]  = 1
x(354,772)[0..1]  = 1
x(234,899)[0..1]  = 1
x(463,692)[0..1]  = 1
x(30,796)[0..1]  = 1
x(395,493)[0..1]  = 1
x(75,347)[0..1]  = 1
x(167,537)[0..1]  = 1
x(237,451)[0..1]  = 1
x(737,282)[0..1]  = 1
x(945,676)[0..1]  = 1
x(541,82)[0..1]  = 1
x(755,707)[0..1]  = 1
x(554,174)[0..1]  = 1
x(705,148)[0..1]  = 1
x(667,506)[0..1]  = 1
x(602,77)[0..1]  = 1
x(686,93)[0..1]  = 1
x(797,732)[0..1]  = 1
x(707,445)[0..1]  = 1
x(230,189)[0..1]  = 1
x(991,141)[0..1]  = 1
x(592,497)[0..1]  = 1
x(538,468)[0..1]  = 1
x(538,171)[0..1]  = 1
x(654,285)[0..1]  = 1
x(548,230)[0..1]  = 1
x(852,467)[0..1]  = 1
x(904,302)[0..1]  = 1
x(72,32)[0..1]  = 1
x(938,453)[0..1]  = 1
x(862,153)[0..1]  = 1
x(913,871)[0..1]  = 1
x(417,273)[0..1]  = 1
x(597,184)[0..1]  = 1
x(310,3)[0..1]  = 1
x(273,28)[0..1]  = 1
x(457,333)[0..1]  = 1
x(328,83)[0..1]  = 1
x(793,221)[0..1]  = 1
x(296,245)[0..1]  = 1
x(866,729)[0..1]  = 1
x(638,573)[0..1]  = 1
x(412,219)[0..1]  = 1
x(455,137)[0..1]  = 1
x(645,472)[0..1]  = 1
x(768,87)[0..1]  = 1
x(380,4)[0..1]  = 1
x(794,54)[0..1]  = 1
x(579,200)[0..1]  = 1
x(501,131)[0..1]  = 1
x(675,300)[0..1]  = 1
x(549,67)[0..1]  = 1
x(418,416)[0..1]  = 1
x(954,125)[0..1]  = 1
x(747,75)[0..1]  = 1
x(633,399)[0..1]  = 1
x(886,410)[0..1]  = 1
x(879,812)[0..1]  = 1
x(737,249)[0..1]  = 1
x(960,271)[0..1]  = 1
x(248,158)[0..1]  = 1
x(654,327)[0..1]  = 1
x(763,706)[0..1]  = 1
x(833,309)[0..1]  = 1
x(857,442)[0..1]  = 1
x(184,39)[0..1]  = 1
x(335,2)[0..1]  = 1
x(417,359)[0..1]  = 1
x(859,177)[0..1]  = 1
x(189,156)[0..1]  = 1
x(953,427)[0..1]  = 1
x(480,385)[0..1]  = 1
x(737,215)[0..1]  = 1
x(227,7)[0..1]  = 1
x(673,511)[0..1]  = 1
x(929,548)[0..1]  = 1
x(888,882)[0..1]  = 1
x(982,958)[0..1]  = 1
x(365,303)[0..1]  = 1
x(153,94)[0..1]  = 1
x(155,40)[0..1]  = 1
x(925,376)[0..1]  = 1
x(841,747)[0..1]  = 1
x(291,287)[0..1]  = 1
x(972,369)[0..1]  = 1
x(852,769)[0..1]  = 1
x(743,279)[0..1]  = 1
x(494,76)[0..1]  = 1
x(298,12)[0..1]  = 1
x(706,666)[0..1]  = 1
x(970,424)[0..1]  = 1
x(681,56)[0..1]  = 1
x(641,235)[0..1]  = 1
x(408,122)[0..1]  = 1
x(862,728)[0..1]  = 1
x(992,441)[0..1]  = 1
x(300,190)[0..1]  = 1
x(222,194)[0..1]  = 1
x(866,541)[0..1]  = 1
x(420,172)[0..1]  = 1
x(733,329)[0..1]  = 1
x(868,766)[0..1]  = 1
x(894,96)[0..1]  = 1
x(701,575)[0..1]  = 1
x(345,51)[0..1]  = 1
x(746,226)[0..1]  = 1
x(946,433)[0..1]  = 1
x(853,123)[0..1]  = 1
x(995,768)[0..1]  = 1
x(707,143)[0..1]  = 1
x(774,106)[0..1]  = 1
x(741,407)[0..1]  = 1
x(301,8)[0..1]  = 1
x(860,496)[0..1]  = 1
x(969,683)[0..1]  = 1
x(862,523)[0..1]  = 1
x(476,52)[0..1]  = 1
x(320,20)[0..1]  = 1
x(240,72)[0..1]  = 1
x(548,411)[0..1]  = 1
x(947,277)[0..1]  = 1
x(457,45)[0..1]  = 1
x(970,788)[0..1]  = 1
x(910,116)[0..1]  = 1
x(917,152)[0..1]  = 1
x(948,257)[0..1]  = 1
x(985,266)[0..1]  = 1
x(252,124)[0..1]  = 1
x(406,237)[0..1]  = 1
x(797,596)[0..1]  = 1
x(960,79)[0..1]  = 1
x(651,293)[0..1]  = 1
x(947,700)[0..1]  = 1
x(674,602)[0..1]  = 1
x(861,100)[0..1]  = 1
x(471,356)[0..1]  = 1
x(443,175)[0..1]  = 1
x(445,167)[0..1]  = 1
x(948,203)[0..1]  = 1
x(790,552)[0..1]  = 1
x(982,207)[0..1]  = 1
x(577,202)[0..1]  = 1
x(638,310)[0..1]  = 1
x(741,201)[0..1]  = 1
x(757,364)[0..1]  = 1
x(539,408)[0..1]  = 1
x(543,186)[0..1]  = 1
x(866,609)[0..1]  = 1
x(776,756)[0..1]  = 1
x(823,539)[0..1]  = 1
x(850,716)[0..1]  = 1
x(673,128)[0..1]  = 1
x(853,709)[0..1]  = 1
x(894,13)[0..1]  = 1
x(741,645)[0..1]  = 1
x(913,275)[0..1]  = 1
x(914,187)[0..1]  = 1
x(464,461)[0..1]  = 1
x(578,48)[0..1]  = 1
x(673,578)[0..1]  = 1
x(666,320)[0..1]  = 1
x(810,803)[0..1]  = 1
x(904,705)[0..1]  = 1
x(842,314)[0..1]  = 1
x(994,797)[0..1]  = 1
x(511,412)[0..1]  = 1
x(605,382)[0..1]  = 1
x(852,322)[0..1]  = 1
x(660,478)[0..1]  = 1
x(782,63)[0..1]  = 1
x(953,331)[0..1]  = 1
x(708,372)[0..1]  = 1
x(939,23)[0..1]  = 1
x(594,316)[0..1]  = 1
x(922,503)[0..1]  = 1
x(953,671)[0..1]  = 1
x(488,308)[0..1]  = 1
x(903,895)[0..1]  = 1
x(691,248)[0..1]  = 1
x(496,247)[0..1]  = 1
x(771,586)[0..1]  = 1
x(990,550)[0..1]  = 1
x(549,102)[0..1]  = 1
x(947,155)[0..1]  = 1
x(707,231)[0..1]  = 1
x(762,475)[0..1]  = 1
x(398,234)[0..1]  = 1
x(706,404)[0..1]  = 1
x(557,387)[0..1]  = 1
x(290,69)[0..1]  = 1
x(737,222)[0..1]  = 1
x(203,135)[0..1]  = 1
x(586,463)[0..1]  = 1
x(137,55)[0..1]  = 1
x(913,908)[0..1]  = 1
x(413,317)[0..1]  = 1
x(501,195)[0..1]  = 1
x(488,5)[0..1]  = 1
x(385,301)[0..1]  = 1
x(252,97)[0..1]  = 1
x(271,256)[0..1]  = 1
x(798,68)[0..1]  = 1
x(705,181)[0..1]  = 1
x(970,794)[0..1]  = 1
x(748,622)[0..1]  = 1
x(915,457)[0..1]  = 1
x(487,130)[0..1]  = 1
x(877,104)[0..1]  = 1
x(87,81)[0..1]  = 1
x(565,454)[0..1]  = 1
x(992,834)[0..1]  = 1
x(782,9)[0..1]  = 1
x(879,46)[0..1]  = 1
x(525,476)[0..1]  = 1
x(773,164)[0..1]  = 1
x(474,312)[0..1]  = 1
x(727,252)[0..1]  = 1
x(852,166)[0..1]  = 1
x(756,418)[0..1]  = 1
x(707,590)[0..1]  = 1
x(833,344)[0..1]  = 1
x(986,212)[0..1]  = 1
x(406,380)[0..1]  = 1
x(929,633)[0..1]  = 1
x(763,727)[0..1]  = 1
x(413,384)[0..1]  = 1
x(498,66)[0..1]  = 1
x(951,30)[0..1]  = 1
x(771,605)[0..1]  = 1
x(849,298)[0..1]  = 1
x(594,481)[0..1]  = 1
x(376,227)[0..1]  = 1
x(956,41)[0..1]  = 1
x(697,113)[0..1]  = 1
x(430,216)[0..1]  = 1
x(476,92)[0..1]  = 1
x(747,168)[0..1]  = 1
x(791,363)[0..1]  = 1
x(487,211)[0..1]  = 1
x(552,499)[0..1]  = 1
x(696,291)[0..1]  = 1
x(984,258)[0..1]  = 1
x(451,355)[0..1]  = 1
x(622,425)[0..1]  = 1
x(538,437)[0..1]  = 1
x(518,24)[0..1]  = 1
x(990,971)[0..1]  = 1
x(233,105)[0..1]  = 1
x(506,395)[0..1]  = 1
x(769,554)[0..1]  = 1
x(356,214)[0..1]  = 1
x(915,239)[0..1]  = 1
x(328,6)[0..1]  = 1
x(511,365)[0..1]  = 1
x(678,103)[0..1]  = 1
z(2)[0..1]  = 1
z(3)[0..1]  = 1
z(4)[0..1]  = 1
z(5)[0..1]  = 1
z(6)[0..1]  = 1
z(7)[0..1]  = 1
z(8)[0..1]  = 1
z(9)[0..1]  = 1
z(12)[0..1]  = 1
z(13)[0..1]  = 1
z(20)[0..1]  = 1
z(23)[0..1]  = 1
z(24)[0..1]  = 1
z(27)[0..1]  = 1
z(28)[0..1]  = 1
z(30)[0..1]  = 1
z(32)[0..1]  = 1
z(39)[0..1]  = 1
z(40)[0..1]  = 1
z(41)[0..1]  = 1
z(45)[0..1]  = 1
z(46)[0..1]  = 1
z(48)[0..1]  = 1
z(51)[0..1]  = 1
z(52)[0..1]  = 1
z(54)[0..1]  = 1
z(55)[0..1]  = 1
z(56)[0..1]  = 1
z(63)[0..1]  = 1
z(66)[0..1]  = 1
z(67)[0..1]  = 1
z(68)[0..1]  = 1
z(69)[0..1]  = 1
z(71)[0..1]  = 1
z(72)[0..1]  = 1
z(75)[0..1]  = 1
z(76)[0..1]  = 1
z(77)[0..1]  = 1
z(79)[0..1]  = 1
z(81)[0..1]  = 1
z(82)[0..1]  = 1
z(83)[0..1]  = 1
z(87)[0..1]  = 1
z(92)[0..1]  = 1
z(93)[0..1]  = 1
z(94)[0..1]  = 1
z(96)[0..1]  = 1
z(97)[0..1]  = 1
z(100)[0..1]  = 1
z(102)[0..1]  = 1
z(103)[0..1]  = 1
z(104)[0..1]  = 1
z(105)[0..1]  = 1
z(106)[0..1]  = 1
z(110)[0..1]  = 1
z(113)[0..1]  = 1
z(116)[0..1]  = 1
z(118)[0..1]  = 1
z(119)[0..1]  = 1
z(122)[0..1]  = 1
z(123)[0..1]  = 1
z(124)[0..1]  = 1
z(125)[0..1]  = 1
z(128)[0..1]  = 1
z(130)[0..1]  = 1
z(131)[0..1]  = 1
z(135)[0..1]  = 1
z(137)[0..1]  = 1
z(141)[0..1]  = 1
z(143)[0..1]  = 1
z(148)[0..1]  = 1
z(152)[0..1]  = 1
z(153)[0..1]  = 1
z(154)[0..1]  = 1
z(155)[0..1]  = 1
z(156)[0..1]  = 1
z(158)[0..1]  = 1
z(164)[0..1]  = 1
z(166)[0..1]  = 1
z(167)[0..1]  = 1
z(168)[0..1]  = 1
z(171)[0..1]  = 1
z(172)[0..1]  = 1
z(174)[0..1]  = 1
z(175)[0..1]  = 1
z(177)[0..1]  = 1
z(181)[0..1]  = 1
z(182)[0..1]  = 1
z(184)[0..1]  = 1
z(186)[0..1]  = 1
z(187)[0..1]  = 1
z(189)[0..1]  = 1
z(190)[0..1]  = 1
z(193)[0..1]  = 1
z(194)[0..1]  = 1
z(195)[0..1]  = 1
z(200)[0..1]  = 1
z(201)[0..1]  = 1
z(202)[0..1]  = 1
z(203)[0..1]  = 1
z(207)[0..1]  = 1
z(208)[0..1]  = 1
z(211)[0..1]  = 1
z(212)[0..1]  = 1
z(214)[0..1]  = 1
z(215)[0..1]  = 1
z(216)[0..1]  = 1
z(219)[0..1]  = 1
z(220)[0..1]  = 1
z(221)[0..1]  = 1
z(222)[0..1]  = 1
z(224)[0..1]  = 1
z(226)[0..1]  = 1
z(227)[0..1]  = 1
z(230)[0..1]  = 1
z(231)[0..1]  = 1
z(233)[0..1]  = 1
z(234)[0..1]  = 1
z(235)[0..1]  = 1
z(237)[0..1]  = 1
z(238)[0..1]  = 1
z(239)[0..1]  = 1
z(240)[0..1]  = 1
z(245)[0..1]  = 1
z(247)[0..1]  = 1
z(248)[0..1]  = 1
z(249)[0..1]  = 1
z(251)[0..1]  = 1
z(252)[0..1]  = 1
z(256)[0..1]  = 1
z(257)[0..1]  = 1
z(258)[0..1]  = 1
z(260)[0..1]  = 1
z(265)[0..1]  = 1
z(266)[0..1]  = 1
z(271)[0..1]  = 1
z(273)[0..1]  = 1
z(275)[0..1]  = 1
z(277)[0..1]  = 1
z(279)[0..1]  = 1
z(282)[0..1]  = 1
z(284)[0..1]  = 1
z(285)[0..1]  = 1
z(287)[0..1]  = 1
z(290)[0..1]  = 1
z(291)[0..1]  = 1
z(293)[0..1]  = 1
z(295)[0..1]  = 1
z(296)[0..1]  = 1
z(297)[0..1]  = 1
z(298)[0..1]  = 1
z(299)[0..1]  = 1
z(300)[0..1]  = 1
z(301)[0..1]  = 1
z(302)[0..1]  = 1
z(303)[0..1]  = 1
z(308)[0..1]  = 1
z(309)[0..1]  = 1
z(310)[0..1]  = 1
z(311)[0..1]  = 1
z(312)[0..1]  = 1
z(314)[0..1]  = 1
z(316)[0..1]  = 1
z(317)[0..1]  = 1
z(320)[0..1]  = 1
z(322)[0..1]  = 1
z(323)[0..1]  = 1
z(324)[0..1]  = 1
z(327)[0..1]  = 1
z(328)[0..1]  = 1
z(329)[0..1]  = 1
z(331)[0..1]  = 1
z(333)[0..1]  = 1
z(335)[0..1]  = 1
z(344)[0..1]  = 1
z(345)[0..1]  = 1
z(347)[0..1]  = 1
z(348)[0..1]  = 1
z(349)[0..1]  = 1
z(354)[0..1]  = 1
z(355)[0..1]  = 1
z(356)[0..1]  = 1
z(358)[0..1]  = 1
z(359)[0..1]  = 1
z(360)[0..1]  = 1
z(361)[0..1]  = 1
z(363)[0..1]  = 1
z(364)[0..1]  = 1
z(365)[0..1]  = 1
z(366)[0..1]  = 1
z(369)[0..1]  = 1
z(371)[0..1]  = 1
z(372)[0..1]  = 1
z(376)[0..1]  = 1
z(378)[0..1]  = 1
z(380)[0..1]  = 1
z(382)[0..1]  = 1
z(384)[0..1]  = 1
z(385)[0..1]  = 1
z(387)[0..1]  = 1
z(390)[0..1]  = 1
z(391)[0..1]  = 1
z(392)[0..1]  = 1
z(395)[0..1]  = 1
z(397)[0..1]  = 1
z(398)[0..1]  = 1
z(399)[0..1]  = 1
z(404)[0..1]  = 1
z(405)[0..1]  = 1
z(406)[0..1]  = 1
z(407)[0..1]  = 1
z(408)[0..1]  = 1
z(410)[0..1]  = 1
z(411)[0..1]  = 1
z(412)[0..1]  = 1
z(413)[0..1]  = 1
z(416)[0..1]  = 1
z(417)[0..1]  = 1
z(418)[0..1]  = 1
z(420)[0..1]  = 1
z(423)[0..1]  = 1
z(424)[0..1]  = 1
z(425)[0..1]  = 1
z(427)[0..1]  = 1
z(430)[0..1]  = 1
z(433)[0..1]  = 1
z(437)[0..1]  = 1
z(439)[0..1]  = 1
z(441)[0..1]  = 1
z(442)[0..1]  = 1
z(443)[0..1]  = 1
z(445)[0..1]  = 1
z(447)[0..1]  = 1
z(449)[0..1]  = 1
z(451)[0..1]  = 1
z(453)[0..1]  = 1
z(454)[0..1]  = 1
z(455)[0..1]  = 1
z(457)[0..1]  = 1
z(459)[0..1]  = 1
z(461)[0..1]  = 1
z(463)[0..1]  = 1
z(464)[0..1]  = 1
z(467)[0..1]  = 1
z(468)[0..1]  = 1
z(471)[0..1]  = 1
z(472)[0..1]  = 1
z(473)[0..1]  = 1
z(474)[0..1]  = 1
z(475)[0..1]  = 1
z(476)[0..1]  = 1
z(478)[0..1]  = 1
z(480)[0..1]  = 1
z(481)[0..1]  = 1
z(482)[0..1]  = 1
z(486)[0..1]  = 1
z(487)[0..1]  = 1
z(488)[0..1]  = 1
z(493)[0..1]  = 1
z(494)[0..1]  = 1
z(496)[0..1]  = 1
z(497)[0..1]  = 1
z(498)[0..1]  = 1
z(499)[0..1]  = 1
z(500)[0..1]  = 1
z(501)[0..1]  = 1
z(503)[0..1]  = 1
z(505)[0..1]  = 1
z(506)[0..1]  = 1
z(511)[0..1]  = 1
z(513)[0..1]  = 1
z(518)[0..1]  = 1
z(523)[0..1]  = 1
z(524)[0..1]  = 1
z(525)[0..1]  = 1
z(537)[0..1]  = 1
z(538)[0..1]  = 1
z(539)[0..1]  = 1
z(541)[0..1]  = 1
z(542)[0..1]  = 1
z(543)[0..1]  = 1
z(548)[0..1]  = 1
z(549)[0..1]  = 1
z(550)[0..1]  = 1
z(552)[0..1]  = 1
z(554)[0..1]  = 1
z(557)[0..1]  = 1
z(558)[0..1]  = 1
z(563)[0..1]  = 1
z(564)[0..1]  = 1
z(565)[0..1]  = 1
z(569)[0..1]  = 1
z(573)[0..1]  = 1
z(575)[0..1]  = 1
z(577)[0..1]  = 1
z(578)[0..1]  = 1
z(579)[0..1]  = 1
z(580)[0..1]  = 1
z(585)[0..1]  = 1
z(586)[0..1]  = 1
z(587)[0..1]  = 1
z(590)[0..1]  = 1
z(592)[0..1]  = 1
z(594)[0..1]  = 1
z(596)[0..1]  = 1
z(597)[0..1]  = 1
z(602)[0..1]  = 1
z(603)[0..1]  = 1
z(605)[0..1]  = 1
z(607)[0..1]  = 1
z(609)[0..1]  = 1
z(611)[0..1]  = 1
z(612)[0..1]  = 1
z(615)[0..1]  = 1
z(616)[0..1]  = 1
z(617)[0..1]  = 1
z(620)[0..1]  = 1
z(622)[0..1]  = 1
z(633)[0..1]  = 1
z(638)[0..1]  = 1
z(641)[0..1]  = 1
z(645)[0..1]  = 1
z(646)[0..1]  = 1
z(650)[0..1]  = 1
z(651)[0..1]  = 1
z(653)[0..1]  = 1
z(654)[0..1]  = 1
z(659)[0..1]  = 1
z(660)[0..1]  = 1
z(661)[0..1]  = 1
z(665)[0..1]  = 1
z(666)[0..1]  = 1
z(667)[0..1]  = 1
z(671)[0..1]  = 1
z(672)[0..1]  = 1
z(673)[0..1]  = 1
z(674)[0..1]  = 1
z(675)[0..1]  = 1
z(676)[0..1]  = 1
z(677)[0..1]  = 1
z(678)[0..1]  = 1
z(681)[0..1]  = 1
z(683)[0..1]  = 1
z(686)[0..1]  = 1
z(691)[0..1]  = 1
z(692)[0..1]  = 1
z(696)[0..1]  = 1
z(697)[0..1]  = 1
z(698)[0..1]  = 1
z(700)[0..1]  = 1
z(701)[0..1]  = 1
z(702)[0..1]  = 1
z(703)[0..1]  = 1
z(705)[0..1]  = 1
z(706)[0..1]  = 1
z(707)[0..1]  = 1
z(708)[0..1]  = 1
z(709)[0..1]  = 1
z(712)[0..1]  = 1
z(713)[0..1]  = 1
z(714)[0..1]  = 1
z(716)[0..1]  = 1
z(717)[0..1]  = 1
z(720)[0..1]  = 1
z(722)[0..1]  = 1
z(727)[0..1]  = 1
z(728)[0..1]  = 1
z(729)[0..1]  = 1
z(732)[0..1]  = 1
z(733)[0..1]  = 1
z(736)[0..1]  = 1
z(737)[0..1]  = 1
z(738)[0..1]  = 1
z(739)[0..1]  = 1
z(741)[0..1]  = 1
z(743)[0..1]  = 1
z(746)[0..1]  = 1
z(747)[0..1]  = 1
z(748)[0..1]  = 1
z(750)[0..1]  = 1
z(751)[0..1]  = 1
z(755)[0..1]  = 1
z(756)[0..1]  = 1
z(757)[0..1]  = 1
z(759)[0..1]  = 1
z(762)[0..1]  = 1
z(763)[0..1]  = 1
z(764)[0..1]  = 1
z(765)[0..1]  = 1
z(766)[0..1]  = 1
z(768)[0..1]  = 1
z(769)[0..1]  = 1
z(771)[0..1]  = 1
z(772)[0..1]  = 1
z(773)[0..1]  = 1
z(774)[0..1]  = 1
z(776)[0..1]  = 1
z(782)[0..1]  = 1
z(787)[0..1]  = 1
z(788)[0..1]  = 1
z(790)[0..1]  = 1
z(791)[0..1]  = 1
z(792)[0..1]  = 1
z(793)[0..1]  = 1
z(794)[0..1]  = 1
z(796)[0..1]  = 1
z(797)[0..1]  = 1
z(798)[0..1]  = 1
z(800)[0..1]  = 1
z(803)[0..1]  = 1
z(808)[0..1]  = 1
z(810)[0..1]  = 1
z(811)[0..1]  = 1
z(812)[0..1]  = 1
z(815)[0..1]  = 1
z(823)[0..1]  = 1
z(828)[0..1]  = 1
z(833)[0..1]  = 1
z(834)[0..1]  = 1
z(837)[0..1]  = 1
z(841)[0..1]  = 1
z(842)[0..1]  = 1
z(843)[0..1]  = 1
z(845)[0..1]  = 1
z(849)[0..1]  = 1
z(850)[0..1]  = 1
z(852)[0..1]  = 1
z(853)[0..1]  = 1
z(854)[0..1]  = 1
z(855)[0..1]  = 1
z(857)[0..1]  = 1
z(859)[0..1]  = 1
z(860)[0..1]  = 1
z(861)[0..1]  = 1
z(862)[0..1]  = 1
z(864)[0..1]  = 1
z(866)[0..1]  = 1
z(868)[0..1]  = 1
z(871)[0..1]  = 1
z(872)[0..1]  = 1
z(873)[0..1]  = 1
z(877)[0..1]  = 1
z(879)[0..1]  = 1
z(882)[0..1]  = 1
z(886)[0..1]  = 1
z(888)[0..1]  = 1
z(894)[0..1]  = 1
z(895)[0..1]  = 1
z(898)[0..1]  = 1
z(899)[0..1]  = 1
z(903)[0..1]  = 1
z(904)[0..1]  = 1
z(908)[0..1]  = 1
z(909)[0..1]  = 1
z(910)[0..1]  = 1
z(913)[0..1]  = 1
z(914)[0..1]  = 1
z(915)[0..1]  = 1
z(917)[0..1]  = 1
z(921)[0..1]  = 1
z(922)[0..1]  = 1
z(925)[0..1]  = 1
z(926)[0..1]  = 1
z(929)[0..1]  = 1
z(935)[0..1]  = 1
z(938)[0..1]  = 1
z(939)[0..1]  = 1
z(941)[0..1]  = 1
z(944)[0..1]  = 1
z(945)[0..1]  = 1
z(946)[0..1]  = 1
z(947)[0..1]  = 1
z(948)[0..1]  = 1
z(950)[0..1]  = 1
z(951)[0..1]  = 1
z(953)[0..1]  = 1
z(954)[0..1]  = 1
z(956)[0..1]  = 1
z(958)[0..1]  = 1
z(960)[0..1]  = 1
z(962)[0..1]  = 1
z(965)[0..1]  = 1
z(969)[0..1]  = 1
z(970)[0..1]  = 1
z(971)[0..1]  = 1
z(972)[0..1]  = 1
z(975)[0..1]  = 1
z(976)[0..1]  = 1
z(982)[0..1]  = 1
z(984)[0..1]  = 1
z(985)[0..1]  = 1
z(986)[0..1]  = 1
z(987)[0..1]  = 1
z(990)[0..1]  = 1
z(991)[0..1]  = 1
z(992)[0..1]  = 1
z(994)[0..1]  = 1
z(995)[0..1]  = 1
z(997)[0..1]  = 1
z(998)[0..1]  = 1


CPLEX finished.

CPLEX status: Optimal
Branch-and-Bound nodes: 725
Objective value: 7595
CPU time: 899.64

